Traveling Salesman Problem/TSP_generados/Aleatorio1620390881_7.tsp
NAME: Aleatorio1620390881_7.tsp
COMMENT: Randomly generated scenario
TYPE: TSP
DIMENSION: 7
EDGE_WEIGHT_TYPE: ATT
NODE_COORD_SECTION
1 27.91 2.01
2 39.54 6.63
3 38.63 48.6
4 48.34 42.54
5 33.48 18.22
6 28.3 12.71
7 9.63 49.21
