Traveling Salesman Problem/TSP_generados/Aleatorio1620390881_7.opt.tour
NAME: Aleatorio1620390881_7.opt.tour
COMMENT: Optimal solution for Aleatorio1620390881_7 (146.25044983133392)
TYPE: TOUR
DIMENSION: 7
TOUR_SECTION
1 6 7 3 4 5 2
-1
EOF
